
%FILE DATA:	Soccer Computational Problem for MiniZinc Models	%
%AUTHOR:	Jack Wall	%
%CONTACT:  	116397063@umail.ucc.ie			%
%LAST UPDATE:	03/03/2020, 16:21:29						%
%DESCRIPTION: 	50 games played with 40 games left				%


n=10; %number of teams

%Games to play
games=[|5,6|10,8|4,10|2,7|9,3|10,2|3,1|7,9|5,8|9,2|8,5|4,1|1,6|9,7|2,5|1,8|9,6|3,4|5,9|10,4|3,8|8,10|9,8|6,10|7,6|8,7|7,8|9,4|4,2|4,5|7,3|3,6|6,8|6,5|6,7|10,6|8,6|4,9|7,1|6,1|];

%Initial points
iPoints=[13,24,13,7,15,10,11,12,7,21];

%POSITION CONSTRAINTS
% [|teamID, operator, position|...]
% operators index:
%  1 for =  operator
%  2 for >  operator
%  3 for >= operator
%  4 for <  operator
%  5 for <= operator
positionConstraints=[|10,3,1|2,3,2|5,3,3|];